unsat
(:max-memory         18.42
 :memory             18.32
 :nlsat-arith-var    3
 :nlsat-atoms        10
 :nlsat-bool-var     1
 :nlsat-clauses      8
 :nlsat-conflicts    2
 :nlsat-propagations 5
 :nlsat-stages       2
 :num-allocs         50329
 :rlimit-count       1225
 :time               0.00
 :total-time         0.01)
